p tw 33 35
1 2
2 13
3 4
4 5
5 6
6 7
7 8
8 9
8 10
9 26
10 11
11 12
12 14
13 24
14 15
15 16
15 21
16 17
17 18
18 19
19 20
20 23
21 22
22 23
23 25
24 28
25 26
26 27
28 29
29 30
30 31
31 32
31 33
32 26
33 3
